33D32945 STP File, STP Format Version 1.0

SECTION Comments
Name "edge_n12_d2_s40"
Problem "Euclidean Steiner Tree Problem"
Remark "Generated with STPGenerator. 2 dimensions."
END

SECTION Graph
Nodes 12
END

SECTION Coordinates
DD 0 0.8194229132 0.8194229132
DD 1 0.5062902763 0.5062902763
DD 2 0.0883140588 0.0883140588
DD 3 0.7855343049 0.7855343049
DD 4 0.3411775247 0.3411775247
DD 5 0.8119810777 0.8119810777
DD 6 0.9184383005 0.9184383005
DD 7 0.2771394566 0.2771394566
DD 8 0.1947866791 0.1947866791
DD 9 0.8602793272 0.8602793272
DD 10 0.3503405700 0.3503405700
DD 11 0.4464217548 0.4464217548
END
